563,388
613,273
245,723
681,556
681,226
909,480
342,160
488,140
742,21
698,430
441,284
764,662
536,301
639,672
710,402
765,-127
935,152
1081,610
948,542
713,199
518,86
1071,406
894,514
282,277
729,371
1137,258
415,448
826,301
702,427
681,46
847,919
627,512
761,366
515,919
681,196
510,461
